c "591723.clq"
p edge 141 548
e 1 5
e 2 5
e 2 6
e 2 7
e 2 12
e 2 15
e 2 19
e 2 22
e 2 34
e 2 53
e 2 87
e 3 5
e 3 6
e 3 17
e 3 31
e 3 125
e 4 5
e 4 6
e 4 7
e 4 8
e 4 10
e 4 11
e 4 14
e 4 25
e 4 30
e 4 33
e 4 40
e 4 45
e 4 49
e 4 67
e 4 74
e 4 75
e 4 107
e 4 110
e 4 116
e 4 128
e 4 135
e 5 6
e 5 7
e 5 8
e 5 9
e 5 10
e 5 11
e 5 12
e 5 14
e 5 16
e 5 20
e 5 21
e 5 22
e 5 24
e 5 25
e 5 30
e 5 31
e 5 33
e 5 35
e 5 36
e 5 39
e 5 41
e 5 42
e 5 43
e 5 52
e 5 54
e 5 56
e 5 58
e 5 68
e 5 77
e 5 99
e 5 108
e 5 121
e 5 139
e 6 7
e 6 8
e 6 9
e 6 10
e 6 12
e 6 13
e 6 14
e 6 17
e 6 18
e 6 19
e 6 23
e 6 26
e 6 29
e 6 32
e 6 34
e 6 36
e 6 40
e 6 46
e 6 48
e 6 60
e 6 68
e 6 71
e 6 78
e 6 80
e 6 88
e 7 8
e 7 9
e 7 11
e 7 12
e 7 13
e 7 16
e 7 18
e 7 21
e 7 39
e 7 52
e 7 74
e 7 75
e 7 84
e 7 90
e 7 95
e 7 101
e 7 103
e 7 108
e 7 113
e 7 117
e 7 118
e 7 119
e 7 123
e 7 138
e 8 9
e 8 10
e 8 16
e 8 17
e 8 19
e 8 37
e 8 38
e 8 58
e 8 82
e 8 100
e 8 102
e 8 119
e 8 122
e 8 125
e 8 137
e 9 13
e 9 16
e 9 20
e 9 21
e 9 26
e 9 47
e 9 57
e 9 67
e 9 75
e 9 104
e 9 107
e 9 108
e 9 115
e 9 116
e 10 11
e 10 13
e 10 14
e 10 18
e 10 19
e 10 28
e 10 31
e 10 38
e 10 50
e 10 55
e 10 64
e 10 69
e 10 100
e 10 103
e 10 106
e 10 132
e 10 133
e 10 137
e 10 140
e 10 141
e 11 15
e 11 18
e 11 20
e 11 33
e 11 43
e 11 44
e 11 50
e 11 72
e 11 89
e 11 105
e 11 133
e 11 141
e 12 15
e 12 27
e 12 29
e 12 35
e 12 37
e 12 48
e 12 49
e 12 60
e 12 66
e 12 98
e 12 99
e 12 106
e 12 115
e 12 122
e 13 20
e 13 23
e 13 25
e 13 30
e 13 38
e 13 55
e 13 56
e 13 62
e 13 63
e 13 72
e 13 76
e 13 85
e 13 110
e 13 133
e 14 15
e 14 17
e 14 27
e 14 30
e 14 39
e 14 47
e 14 54
e 14 58
e 14 66
e 14 67
e 14 79
e 14 85
e 14 87
e 14 94
e 14 98
e 14 102
e 14 103
e 14 114
e 14 129
e 15 22
e 15 23
e 15 27
e 15 28
e 15 53
e 15 73
e 15 80
e 15 84
e 15 101
e 15 117
e 16 24
e 16 28
e 16 59
e 16 82
e 16 111
e 17 21
e 17 31
e 17 72
e 17 79
e 17 86
e 17 106
e 17 121
e 18 24
e 18 25
e 18 26
e 18 64
e 18 65
e 18 71
e 19 22
e 19 26
e 19 28
e 19 32
e 19 44
e 19 60
e 19 61
e 19 79
e 19 115
e 19 127
e 19 137
e 20 23
e 20 24
e 20 32
e 20 35
e 20 36
e 20 37
e 20 41
e 20 42
e 20 53
e 20 57
e 20 58
e 20 62
e 20 66
e 20 69
e 20 70
e 20 74
e 20 75
e 20 76
e 20 78
e 20 80
e 20 83
e 20 84
e 20 86
e 20 88
e 20 89
e 20 97
e 20 98
e 20 106
e 20 111
e 20 112
e 20 126
e 20 130
e 20 138
e 20 139
e 21 37
e 21 46
e 21 82
e 22 27
e 22 32
e 22 35
e 22 41
e 22 43
e 22 51
e 22 53
e 22 59
e 22 74
e 22 80
e 22 92
e 22 104
e 22 105
e 22 122
e 22 134
e 23 29
e 23 34
e 23 41
e 23 50
e 23 51
e 23 68
e 23 69
e 23 73
e 23 91
e 23 92
e 23 113
e 23 114
e 23 130
e 23 131
e 23 132
e 24 40
e 24 44
e 24 46
e 24 61
e 24 83
e 25 29
e 25 45
e 25 46
e 25 64
e 25 95
e 25 113
e 25 123
e 25 131
e 26 34
e 26 54
e 27 36
e 27 38
e 27 54
e 27 55
e 27 65
e 27 73
e 27 94
e 27 123
e 27 140
e 28 77
e 28 111
e 28 136
e 29 39
e 29 51
e 29 56
e 29 104
e 29 119
e 30 33
e 30 45
e 30 71
e 30 124
e 30 139
e 31 42
e 31 43
e 31 48
e 31 57
e 31 61
e 31 65
e 31 68
e 31 77
e 31 101
e 31 127
e 32 67
e 32 90
e 32 97
e 32 126
e 32 130
e 33 59
e 33 62
e 33 63
e 33 72
e 33 96
e 33 109
e 34 50
e 34 65
e 34 70
e 34 87
e 34 119
e 35 44
e 35 122
e 36 40
e 36 96
e 36 97
e 36 118
e 37 47
e 37 60
e 37 84
e 37 92
e 37 99
e 38 49
e 38 57
e 38 96
e 38 110
e 39 42
e 39 73
e 40 47
e 40 51
e 40 76
e 40 90
e 40 93
e 40 96
e 40 107
e 40 127
e 40 134
e 40 135
e 41 45
e 41 120
e 41 130
e 42 48
e 42 86
e 42 125
e 42 140
e 43 88
e 43 105
e 44 56
e 44 63
e 44 79
e 44 81
e 44 85
e 45 91
e 46 49
e 47 52
e 47 55
e 47 63
e 47 124
e 48 52
e 48 61
e 48 66
e 48 85
e 48 118
e 49 59
e 49 91
e 49 97
e 50 71
e 50 91
e 50 109
e 51 62
e 51 109
e 53 78
e 53 81
e 53 89
e 53 100
e 53 108
e 53 134
e 53 139
e 54 89
e 54 124
e 57 113
e 57 121
e 58 70
e 58 117
e 60 64
e 60 125
e 61 83
e 61 87
e 62 69
e 62 81
e 62 83
e 62 88
e 62 90
e 62 104
e 62 107
e 62 112
e 62 120
e 62 133
e 63 140
e 64 138
e 65 86
e 65 95
e 66 70
e 66 92
e 66 102
e 67 77
e 67 109
e 67 135
e 69 95
e 69 98
e 69 126
e 69 131
e 69 132
e 71 136
e 72 81
e 72 94
e 72 103
e 72 114
e 72 123
e 72 126
e 73 76
e 74 93
e 74 105
e 74 114
e 74 141
e 76 78
e 76 93
e 76 102
e 77 82
e 77 94
e 78 101
e 81 120
e 81 129
e 83 128
e 84 117
e 85 93
e 86 124
e 87 100
e 87 111
e 87 129
e 88 128
e 88 129
e 89 112
e 92 99
e 92 110
e 93 118
e 94 116
e 96 136
e 101 116
e 103 120
e 103 138
e 107 121
e 108 115
e 108 135
e 110 112
e 111 137
e 115 134
e 117 141
e 121 131
e 122 127
e 122 128
e 122 136
e 125 132
